objective value:                                   28
lambda[0,17]*                                       1 	(obj:28)
lambda[0,19]*                                       2 	(obj:0)
lambda[1,27]*                                       3 	(obj:0)
lambda[0,23]*                                       7 	(obj:0)
lambda[1,31]*                                       7 	(obj:0)
